NAME : X_26_seed_123_id_17
TYPE : CVRP
DIMENSION : 219
EDGE_WEIGHT_TYPE : EUC_2D
CAPACITY : 3
NODE_COORD_SECTION
1	0	0
2	927	144
3	417	502
4	942	761
5	158	610
6	8	449
7	713	921
8	209	239
9	624	350
10	783	537
11	971	616
12	456	182
13	566	157
14	281	686
15	869	762
16	750	638
17	117	305
18	313	392
19	810	840
20	354	522
21	577	349
22	767	356
23	242	41
24	306	944
25	308	245
26	956	857
27	889	312
28	744	203
29	937	278
30	511	288
31	122	750
32	806	185
33	549	657
34	472	992
35	747	349
36	945	423
37	842	965
38	105	119
39	329	194
40	185	685
41	475	615
42	813	354
43	193	16
44	835	680
45	755	890
46	826	610
47	239	266
48	308	127
49	162	645
50	258	680
51	370	778
52	595	304
53	69	444
54	140	512
55	664	81
56	815	376
57	403	350
58	348	955
59	837	770
60	216	504
61	101	25
62	389	445
63	592	31
64	478	307
65	975	386
66	179	891
67	257	521
68	179	305
69	202	138
70	36	391
71	67	33
72	829	900
73	402	508
74	973	879
75	262	636
76	270	57
77	945	469
78	527	223
79	799	165
80	415	71
81	184	292
82	234	186
83	159	378
84	183	349
85	741	740
86	770	627
87	49	601
88	113	487
89	731	636
90	671	105
91	900	454
92	77	76
93	79	220
94	591	205
95	743	189
96	986	855
97	857	592
98	535	203
99	74	28
100	761	216
101	899	71
102	636	967
103	284	427
104	686	182
105	491	488
106	344	892
107	894	841
108	597	835
109	284	941
110	828	933
111	989	699
112	355	555
113	409	50
114	533	184
115	619	773
116	545	816
117	375	13
118	635	618
119	853	718
120	816	950
121	418	886
122	450	975
123	814	285
124	937	818
125	39	15
126	336	445
127	674	298
128	443	833
129	588	72
130	577	504
131	499	969
132	763	652
133	545	335
134	277	745
135	723	350
136	592	461
137	571	696
138	779	436
139	362	51
140	358	565
141	353	211
142	946	458
143	669	286
144	580	856
145	587	319
146	726	303
147	240	894
148	156	405
149	632	786
150	647	683
151	997	731
152	827	206
153	635	295
154	189	379
155	410	97
156	875	303
157	224	300
158	432	641
159	67	104
160	170	527
161	162	218
162	586	594
163	336	110
164	850	650
165	82	951
166	689	139
167	544	809
168	96	144
169	661	493
170	865	971
171	303	507
172	927	260
173	334	175
174	196	71
175	894	106
176	875	954
177	576	234
178	267	528
179	121	876
180	512	270
181	705	917
182	154	81
183	615	818
184	82	944
185	727	582
186	895	852
187	46	30
188	859	950
189	266	866
190	498	429
191	402	190
192	666	112
193	74	683
194	665	270
195	522	787
196	588	413
197	335	191
198	509	619
199	260	145
200	597	994
201	574	847
202	96	756
203	245	313
204	277	697
205	211	808
206	73	313
207	516	78
208	252	153
209	179	726
210	818	484
211	711	72
212	718	148
213	438	475
214	886	513
215	745	581
216	804	120
217	493	70
218	145	870
219	755	834
DEMAND_SECTION
1	0
2	1
3	1
4	1
5	1
6	1
7	1
8	1
9	1
10	1
11	1
12	1
13	1
14	1
15	1
16	1
17	1
18	1
19	1
20	1
21	1
22	1
23	1
24	1
25	1
26	1
27	1
28	1
29	1
30	1
31	1
32	1
33	1
34	1
35	1
36	1
37	1
38	1
39	1
40	1
41	1
42	1
43	1
44	1
45	1
46	1
47	1
48	1
49	1
50	1
51	1
52	1
53	1
54	1
55	1
56	1
57	1
58	1
59	1
60	1
61	1
62	1
63	1
64	1
65	1
66	1
67	1
68	1
69	1
70	1
71	1
72	1
73	1
74	1
75	1
76	1
77	1
78	1
79	1
80	1
81	1
82	1
83	1
84	1
85	1
86	1
87	1
88	1
89	1
90	1
91	1
92	1
93	1
94	1
95	1
96	1
97	1
98	1
99	1
100	1
101	1
102	1
103	1
104	1
105	1
106	1
107	1
108	1
109	1
110	1
111	1
112	1
113	1
114	1
115	1
116	1
117	1
118	1
119	1
120	1
121	1
122	1
123	1
124	1
125	1
126	1
127	1
128	1
129	1
130	1
131	1
132	1
133	1
134	1
135	1
136	1
137	1
138	1
139	1
140	1
141	1
142	1
143	1
144	1
145	1
146	1
147	1
148	1
149	1
150	1
151	1
152	1
153	1
154	1
155	1
156	1
157	1
158	1
159	1
160	1
161	1
162	1
163	1
164	1
165	1
166	1
167	1
168	1
169	1
170	1
171	1
172	1
173	1
174	1
175	1
176	1
177	1
178	1
179	1
180	1
181	1
182	1
183	1
184	1
185	1
186	1
187	1
188	1
189	1
190	1
191	1
192	1
193	1
194	1
195	1
196	1
197	1
198	1
199	1
200	1
201	1
202	1
203	1
204	1
205	1
206	1
207	1
208	1
209	1
210	1
211	1
212	1
213	1
214	1
215	1
216	1
217	1
218	1
219	1
DEPOT_SECTION
1
-1
EOF
